161 97 30 99 133 26 106 37 192 10 69 168 67 82 195 111 55 140 38 193 112 153 184 147 36 23 174 51 54 66 5 33 29 44 50 136 198 98 141 39 162 25 157 121 138 185 101 18 70 78 176 6 166 100 28 16 24 92 134 129 159 46 128 113 81 149 45 179 137 171 85 7 60 132 21 163 4 158 104 135 105 143 62 167 41 116 1 84 32 173 156 165 96 123 49 91 0 71 61 150 199 107 35 126 8 154 2 142 94 152 75 194 170 197 148 58 119 117 15 175 14 64 189 73 182 145 118 164 11 87 31 155 59 180 3 115 52 131 19 120 9 187 63 80 68 90 188 196 146 114 34 48 53 83 139 22 130 122 109 43 95 56 57 172 20 72 178 77 27 93 186 144 89 191 102 124 88 108 76 79 13 65 183 181 47 190 12 74 169 17 42 177 125 103 110 151 40 86 160 127 

